
Gurobi 11.0.3 (linux64) logging started Tue 19 Nov 2024 01:31:25 AM CST

Set parameter LogFile to value "/home/dlcole3/graph_abstraction/hierarchical_graphs/git_storage/CS1/HP_low_reserves/gurobi_logs/serial/logfile_ST30_7.log"

Gurobi 11.0.3 (linux64) logging started Tue 19 Nov 2024 01:35:30 AM CST

Set parameter LogFile to value "/home/dlcole3/graph_abstraction/hierarchical_graphs/git_storage/CS1/HP_low_reserves/gurobi_logs/serial/logfile_ST30_7.log"
Gurobi Optimizer version 11.0.3 build v11.0.3rc0 (linux64 - "Ubuntu 18.04.3 LTS")

CPU model: Intel(R) Xeon(R) CPU E5-2698 v4 @ 2.20GHz, instruction set [SSE2|AVX|AVX2]
Thread count: 40 physical cores, 80 logical processors, using up to 20 threads

Optimize a model with 29168 rows, 50688 columns and 136175 nonzeros
Model fingerprint: 0x0a32fbd4
Variable types: 46944 continuous, 3744 integer (3744 binary)
Coefficient statistics:
  Matrix range     [6e-01, 2e+04]
  Objective range  [2e+00, 2e+04]
  Bounds range     [5e-02, 2e+05]
  RHS range        [2e-03, 7e+03]
Presolve removed 14460 rows and 38712 columns
Presolve time: 0.35s
Presolved: 14708 rows, 11976 columns, 63344 nonzeros
Variable types: 8919 continuous, 3057 integer (3057 binary)
Found heuristic solution: objective 2860248.2196
Found heuristic solution: objective 1940409.7191

Root relaxation: objective 1.011242e+05, 8437 iterations, 0.44 seconds (0.36 work units)

    Nodes    |    Current Node    |     Objective Bounds      |     Work
 Expl Unexpl |  Obj  Depth IntInf | Incumbent    BestBd   Gap | It/Node Time

     0     0 101124.166    0   49 1940409.72 101124.166  94.8%     -    1s
H    0     0                    105123.54934 101124.166  3.80%     -    1s
     0     0 101124.166    0   42 105123.549 101124.166  3.80%     -    1s
H    0     0                    105119.14822 101179.684  3.75%     -    2s
H    0     0                    105086.61334 101191.163  3.71%     -    2s
     0     0 101191.163    0   68 105086.613 101191.163  3.71%     -    2s
     0     0 101870.104    0   84 105086.613 101870.104  3.06%     -    2s
     0     0 101880.522    0   89 105086.613 101880.522  3.05%     -    2s
     0     0 101880.522    0  105 105086.613 101880.522  3.05%     -    2s
     0     0 101889.760    0  105 105086.613 101889.760  3.04%     -    2s
     0     0 101889.760    0  105 105086.613 101889.760  3.04%     -    3s
H    0     0                    105065.26981 101889.760  3.02%     -    3s
     0     0 101889.760    0   38 105065.270 101889.760  3.02%     -    4s
H    0     0                    105065.26979 101889.760  3.02%     -    4s
H    0     0                    105064.14676 101889.760  3.02%     -    4s
     0     0 101889.760    0   75 105064.147 101889.760  3.02%     -    4s
     0     0 101982.971    0   55 105064.147 101982.971  2.93%     -    4s
     0     0 102158.173    0   71 105064.147 102158.173  2.77%     -    4s
     0     0 102158.173    0   92 105064.147 102158.173  2.77%     -    5s
     0     0 102178.933    0   95 105064.147 102178.933  2.75%     -    5s
     0     0 102380.830    0   90 105064.147 102380.830  2.55%     -    5s
     0     0 102380.830    0  112 105064.147 102380.830  2.55%     -    5s
     0     0 102386.404    0  136 105064.147 102386.404  2.55%     -    5s
     0     0 102386.404    0  135 105064.147 102386.404  2.55%     -    5s
     0     0 102396.089    0  150 105064.147 102396.089  2.54%     -    5s
H    0     0                    105031.93576 102396.089  2.51%     -    6s
     0     0 102543.663    0  104 105031.936 102543.663  2.37%     -    6s
     0     0 102588.908    0  137 105031.936 102588.908  2.33%     -    6s
     0     0 102588.933    0  138 105031.936 102588.933  2.33%     -    6s
     0     0 102588.933    0  138 105031.936 102588.933  2.33%     -    6s
     0     2 102588.933    0  138 105031.936 102588.933  2.33%     -    7s
H   27    26                    105006.19044 102588.933  2.30%   119    8s
   105    75 104755.884    9   38 105006.190 102588.933  2.30%   130   10s
H  131    86                    104927.42968 102588.933  2.23%   120   11s
H  143    86                    104880.63727 102588.933  2.19%   120   11s
H  863   439                    102889.38086 102588.933  0.29%  60.3   18s
H  867   439                    102885.58872 102588.933  0.29%  60.0   18s
H  869   439                    102885.56947 102588.933  0.29%  59.9   18s
H  882   439                    102883.62103 102588.933  0.29%  59.4   18s

Cutting planes:
  Gomory: 9
  MIR: 18
  Flow cover: 2

Explored 888 nodes (69275 simplex iterations) in 18.24 seconds (16.35 work units)
Thread count was 20 (of 80 available processors)

Solution count 10: 102884 102886 102886 ... 105087

Optimal solution found (tolerance 3.00e-03)
Best objective 1.028836210275e+05, best bound 1.025889325969e+05, gap 0.2864%

User-callback calls 6214, time in user-callback 0.01 sec
